p td 100 36
3 85
3 95
5 89
6 19
8 35
11 37
11 90
12 25
12 64
15 49
17 46
17 68
17 94
18 93
23 47
26 67
27 80
28 57
28 83
30 93
31 64
37 75
38 96
39 59
42 82
43 98
44 66
44 67
46 85
52 69
61 99
62 96
67 98
69 97
83 90
89 91
